60
1 0 12
2 1 4
3 2 2
4 1 10
4 2 13
4 3 8
5 0 19
5 2 3
5 3 3
5 4 14
6 0 15
6 2 16
6 3 6
6 4 9
7 0 4
7 2 13
7 3 13
7 4 2
8 3 2
8 6 6
8 7 11
9 1 5
9 2 6
9 3 8
9 4 17
9 5 15
9 7 18
9 8 18
10 1 6
10 2 13
10 3 3
10 5 7
10 9 15
11 0 8
11 1 3
11 2 10
11 4 3
11 7 10
11 10 7
12 0 11
12 2 1
12 3 8
12 5 2
12 6 19
12 7 7
12 8 11
12 10 13
12 11 7
13 0 15
13 3 3
13 5 4
13 7 16
13 8 14
13 10 6
13 11 1
14 0 17
14 1 14
14 4 2
14 7 16
14 8 12
14 9 12
14 12 7
15 0 1
15 1 9
15 5 14
15 7 5
15 8 4
15 9 7
15 10 6
15 12 2
15 13 5
16 0 14
16 1 13
16 2 6
16 3 5
16 4 12
16 5 8
16 6 12
16 7 2
16 9 2
16 10 1
16 11 4
16 12 19
16 14 19
17 0 9
17 1 5
17 3 4
17 4 2
17 5 12
17 6 13
17 7 10
17 8 15
17 10 18
17 13 11
17 14 17
18 2 6
18 3 11
18 4 7
18 7 3
18 8 14
18 9 3
18 11 12
18 12 2
18 15 4
18 16 17
19 0 6
19 1 8
19 2 15
19 3 7
19 4 9
19 7 7
19 8 17
19 9 4
19 14 8
19 17 19
20 0 12
20 1 17
20 2 6
20 3 9
20 4 15
20 6 6
20 7 5
20 8 7
20 9 7
20 11 15
20 14 19
20 15 8
20 17 12
20 19 10
21 0 7
21 1 12
21 2 16
21 7 12
21 8 7
21 9 1
21 11 14
21 13 10
21 14 1
21 16 11
21 18 9
21 20 12
22 0 9
22 1 4
22 3 2
22 4 7
22 7 18
22 8 16
22 9 4
22 10 8
22 12 10
23 0 16
23 1 4
23 2 12
23 5 3
23 6 2
23 10 14
23 11 11
23 12 17
23 13 10
23 16 19
23 17 16
23 18 16
23 19 11
23 20 8
23 21 6
23 22 11
24 1 2
24 2 15
24 6 18
24 7 19
24 9 7
24 10 20
24 12 19
24 13 13
24 14 9
24 15 5
24 16 5
24 18 19
24 20 7
24 23 9
25 1 7
25 3 1
25 6 19
25 7 14
25 8 7
25 9 14
25 10 8
25 11 15
25 13 3
25 14 5
25 15 10
25 16 15
25 20 15
25 21 5
25 23 17
26 0 14
26 3 11
26 8 20
26 12 18
26 13 2
26 15 13
26 17 9
26 19 16
26 20 19
26 22 13
26 23 4
26 24 9
27 2 1
27 4 13
27 6 9
27 7 12
27 9 19
27 10 17
27 14 1
27 15 2
27 17 5
27 18 2
27 19 17
27 20 3
27 21 17
27 22 2
27 23 20
27 24 11
27 25 14
27 26 2
28 4 1
28 6 8
28 10 3
28 12 1
28 14 14
28 16 14
28 17 18
28 18 5
28 20 3
28 23 8
28 25 3
29 1 11
29 5 1
29 6 2
29 7 4
29 8 7
29 10 20
29 14 20
29 15 1
29 16 18
29 19 7
29 20 4
29 21 8
29 22 14
29 23 9
29 25 19
29 27 2
29 28 18
30 0 15
30 3 15
30 4 11
30 5 16
30 6 5
30 7 2
30 8 2
30 9 1
30 10 4
30 11 7
30 13 2
30 14 9
30 17 3
30 18 12
30 21 4
30 22 5
30 24 10
30 26 10
30 28 17
31 1 18
31 2 4
31 3 14
31 5 13
31 8 7
31 12 20
31 13 4
31 15 4
31 18 4
31 19 18
31 20 20
31 23 5
31 24 4
31 25 4
31 26 16
31 28 20
31 29 5
32 1 8
32 3 12
32 8 18
32 10 20
32 12 1
32 13 18
32 14 14
32 15 13
32 16 19
32 17 1
32 18 15
32 19 14
32 20 7
32 21 7
32 23 9
32 26 15
32 27 2
32 29 4
32 30 15
33 0 2
33 1 1
33 3 14
33 4 14
33 5 17
33 6 1
33 7 17
33 8 13
33 9 8
33 10 20
33 11 5
33 12 16
33 13 13
33 14 15
33 16 14
33 17 16
33 18 13
33 19 17
33 22 6
33 23 14
33 26 18
33 29 17
33 30 14
33 31 15
34 0 13
34 1 20
34 2 4
34 4 10
34 5 19
34 6 15
34 7 20
34 11 2
34 12 3
34 13 5
34 14 11
34 15 6
34 16 17
34 19 19
34 22 6
34 23 7
34 28 6
34 29 12
34 30 10
34 32 2
34 33 4
35 0 11
35 1 6
35 3 20
35 4 4
35 6 15
35 10 19
35 13 20
35 15 19
35 17 13
35 18 17
35 20 17
35 21 16
35 22 7
35 23 5
35 24 10
35 27 15
35 28 1
35 29 9
35 31 11
35 32 2
35 33 15
35 34 20
36 0 3
36 1 20
36 2 8
36 3 12
36 5 6
36 6 4
36 7 7
36 8 13
36 9 3
36 10 7
36 11 6
36 12 20
36 13 10
36 14 12
36 16 1
36 17 6
36 18 3
36 19 8
36 20 4
36 22 15
36 23 13
36 24 1
36 26 14
36 27 16
36 29 7
36 32 10
36 34 9
36 35 11
37 0 15
37 1 2
37 2 13
37 5 12
37 6 20
37 7 14
37 8 18
37 10 14
37 12 18
37 13 18
37 14 11
37 18 4
37 20 18
37 21 15
37 22 3
37 24 10
37 29 16
37 30 1
37 31 20
37 32 19
37 33 8
37 34 19
37 35 7
37 36 15
38 2 5
38 3 11
38 9 16
38 12 3
38 13 14
38 14 11
38 15 18
38 18 5
38 19 5
38 20 15
38 21 3
38 22 2
38 23 15
38 24 1
38 25 2
38 27 14
38 29 9
38 30 12
38 31 13
38 32 5
38 34 16
38 35 10
39 0 6
39 1 6
39 2 16
39 4 2
39 5 7
39 6 1
39 7 15
39 8 3
39 9 18
39 12 18
39 13 8
39 14 20
39 15 12
39 17 20
39 18 15
39 21 10
39 23 18
39 25 14
39 26 10
39 27 19
39 28 16
39 29 11
39 30 3
39 31 2
39 32 16
39 34 6
39 35 7
39 38 15
40 0 17
40 1 18
40 2 14
40 4 4
40 7 12
40 8 3
40 10 16
40 12 15
40 13 9
40 14 8
40 15 12
40 17 2
40 18 19
40 19 7
40 20 2
40 21 3
40 23 3
40 25 8
40 26 2
40 28 6
40 30 20
40 32 16
40 33 14
40 34 6
40 35 20
40 37 18
40 38 6
40 39 18
41 0 16
41 2 11
41 6 18
41 7 15
41 8 10
41 9 16
41 10 8
41 11 18
41 14 9
41 15 1
41 16 17
41 17 18
41 20 17
41 24 13
41 28 6
41 29 16
41 32 20
41 33 17
41 34 8
41 35 10
41 36 16
41 38 8
41 39 6
42 0 6
42 2 6
42 4 8
42 5 14
42 8 17
42 10 19
42 14 11
42 16 10
42 17 19
42 19 8
42 22 1
42 24 1
42 25 12
42 27 14
42 28 9
42 32 3
42 35 3
42 36 3
42 37 18
42 38 2
42 39 3
42 40 8
43 0 18
43 1 20
43 2 10
43 3 15
43 5 6
43 6 14
43 7 17
43 10 18
43 11 9
43 13 7
43 14 6
43 15 8
43 16 6
43 18 18
43 21 14
43 22 2
43 25 4
43 26 6
43 27 10
43 28 6
43 29 3
43 30 4
43 31 6
43 34 10
43 35 9
43 36 2
43 38 7
43 41 9
43 42 14
44 0 7
44 5 13
44 6 2
44 7 17
44 8 17
44 10 11
44 12 13
44 13 9
44 15 13
44 16 17
44 20 10
44 21 16
44 22 14
44 23 19
44 25 7
44 26 15
44 29 8
44 32 11
44 33 6
44 34 13
44 35 19
44 36 1
44 37 6
44 39 5
44 41 7
44 43 20
45 0 1
45 1 1
45 2 13
45 3 14
45 4 19
45 5 20
45 7 1
45 8 19
45 9 6
45 10 17
45 11 12
45 12 4
45 13 16
45 14 10
45 16 15
45 18 5
45 19 13
45 20 12
45 21 15
45 22 17
45 23 8
45 25 3
45 26 20
45 28 18
45 29 3
45 31 17
45 32 18
45 34 6
45 36 19
45 37 14
45 38 5
45 39 12
45 40 6
45 41 16
45 43 11
45 44 15
46 0 18
46 1 19
46 2 9
46 6 20
46 10 19
46 11 8
46 14 14
46 16 6
46 18 4
46 19 16
46 20 9
46 21 18
46 24 13
46 25 12
46 27 20
46 29 14
46 30 18
46 31 4
46 32 17
46 33 6
46 35 13
46 36 3
46 37 20
46 38 9
46 40 13
46 41 15
46 42 20
46 43 3
47 2 2
47 3 11
47 6 9
47 7 1
47 8 14
47 9 9
47 10 5
47 11 9
47 12 11
47 14 15
47 16 19
47 17 9
47 19 16
47 20 10
47 22 16
47 23 2
47 24 8
47 27 14
47 29 16
47 33 17
47 34 11
47 36 11
47 37 14
47 38 14
47 40 18
47 42 9
47 44 13
47 45 12
47 46 2
48 0 16
48 1 1
48 2 3
48 3 2
48 5 2
48 6 20
48 7 17
48 8 19
48 9 8
48 10 14
48 11 11
48 14 10
48 16 4
48 18 4
48 20 16
48 23 19
48 25 12
48 27 4
48 28 13
48 31 16
48 32 19
48 34 19
48 35 10
48 37 16
48 40 10
48 41 15
48 44 15
48 47 14
49 0 14
49 1 13
49 2 17
49 3 18
49 5 14
49 6 1
49 7 5
49 9 10
49 11 8
49 14 11
49 16 3
49 17 5
49 18 12
49 19 4
49 21 18
49 23 19
49 24 18
49 25 8
49 26 15
49 27 12
49 28 7
49 30 5
49 32 12
49 35 11
49 36 11
49 37 3
49 39 14
49 40 13
49 42 12
49 45 2
49 46 12
49 48 13
50 0 4
50 4 12
50 6 19
50 8 18
50 9 11
50 10 16
50 11 11
50 12 3
50 13 1
50 14 7
50 15 7
50 17 3
50 19 14
50 21 19
50 27 10
50 28 18
50 30 18
50 34 5
50 36 5
50 39 13
50 43 2
50 44 13
50 45 10
50 48 20
50 49 19
51 0 12
51 1 14
51 4 13
51 5 5
51 6 5
51 8 12
51 9 18
51 10 6
51 11 1
51 12 3
51 13 19
51 14 20
51 15 17
51 17 1
51 18 15
51 19 6
51 20 6
51 21 4
51 25 4
51 26 11
51 29 4
51 31 13
51 32 1
51 33 17
51 34 3
51 36 13
51 40 15
51 41 5
51 42 1
51 44 2
51 49 14
51 50 15
52 0 9
52 6 2
52 7 1
52 8 18
52 9 6
52 10 5
52 12 2
52 14 11
52 16 20
52 19 13
52 20 5
52 21 13
52 22 11
52 23 20
52 25 19
52 28 1
52 29 13
52 30 4
52 31 3
52 32 10
52 33 6
52 34 10
52 35 7
52 36 18
52 37 13
52 39 19
52 40 13
52 41 9
52 42 3
52 43 12
52 44 17
52 45 16
52 46 17
52 47 10
52 48 3
52 49 17
52 50 1
53 0 4
53 1 19
53 2 20
53 4 19
53 6 9
53 7 3
53 8 20
53 9 10
53 10 4
53 12 4
53 14 5
53 15 16
53 16 8
53 17 14
53 18 3
53 19 2
53 21 20
53 22 18
53 23 6
53 24 20
53 25 13
53 28 7
53 29 14
53 30 18
53 31 4
53 32 17
53 34 12
53 36 12
53 37 12
53 40 20
53 41 17
53 42 18
53 46 11
53 47 15
53 48 14
53 49 1
53 50 1
53 51 4
54 0 13
54 3 4
54 4 5
54 8 18
54 9 20
54 10 2
54 12 9
54 15 2
54 16 20
54 17 12
54 20 2
54 22 20
54 23 5
54 24 11
54 25 14
54 26 15
54 27 3
54 31 8
54 35 6
54 37 9
54 39 20
54 40 15
54 43 11
54 44 2
54 46 11
54 47 5
54 48 6
54 50 15
54 52 2
54 53 10
55 2 5
55 7 7
55 8 17
55 9 10
55 10 11
55 11 15
55 12 8
55 13 6
55 15 3
55 16 14
55 19 19
55 20 4
55 22 2
55 25 5
55 27 2
55 30 8
55 31 7
55 32 3
55 33 15
55 34 4
55 36 14
55 37 14
55 38 1
55 39 7
55 42 3
55 43 12
55 45 9
55 48 13
55 50 17
55 52 3
55 53 2
55 54 19
56 5 13
56 6 2
56 7 3
56 8 3
56 9 19
56 10 13
56 11 12
56 13 3
56 15 4
56 16 16
56 19 10
56 20 18
56 21 20
56 22 6
56 23 18
56 26 9
56 29 15
56 31 1
56 32 13
56 33 14
56 34 12
56 35 1
56 36 1
56 37 11
56 39 9
56 40 2
56 42 16
56 43 20
56 44 18
56 45 17
56 47 10
56 49 13
56 55 5
57 0 14
57 1 16
57 2 13
57 3 18
57 5 15
57 6 8
57 7 6
57 8 20
57 14 5
57 16 8
57 19 8
57 22 19
57 24 11
57 25 14
57 26 2
57 28 12
57 31 17
57 33 16
57 34 18
57 36 7
57 37 2
57 39 14
57 40 14
57 41 18
57 42 5
57 43 13
57 47 10
57 48 6
57 49 8
57 50 14
57 54 1
57 55 3
58 0 10
58 1 6
58 3 3
58 5 5
58 7 15
58 8 19
58 10 2
58 11 7
58 12 4
58 15 18
58 17 4
58 18 16
58 19 3
58 20 18
58 21 18
58 22 16
58 26 1
58 30 16
58 31 20
58 32 13
58 33 8
58 34 14
58 36 8
58 38 20
58 41 20
58 42 8
58 46 3
58 47 20
58 48 8
58 51 13
58 52 5
58 53 11
58 55 4
58 56 4
58 57 5
59 1 14
59 2 2
59 4 12
59 5 15
59 7 13
59 8 16
59 10 5
59 11 1
59 13 5
59 14 15
59 16 3
59 17 3
59 19 20
59 22 19
59 23 20
59 25 11
59 27 15
59 28 18
59 29 12
59 30 7
59 32 14
59 35 11
59 36 2
59 37 12
59 38 13
59 39 12
59 45 16
59 48 9
59 50 7
59 51 1
59 52 4
59 54 8
59 56 16
59 57 20
